(set-logic QF_S)
(set-option :strings-exp true)
(set-option :produce-models true)
(declare-fun literal_0 () String)
(assert (= literal_0 "\x2f\x73\x6e\x6f\x6f\x70\x79\x2f\x53\x6e\x6f\x6f\x70\x79\x2e\x63\x6c\x61\x73\x73\x2e\x69\x6e\x63"))
(assert (str.in.re literal_0 (re.++ (re.* re.allchar) (re.++ (str.to.re "\x2f\x65\x76\x69\x6c") (re.* re.allchar)))))
(check-sat)
(get-model)
